 vasp.5.4.4.18Apr17-6-g9f103f2a35 (build Sep 23 2020 14:43:34) complex

 executed on             LinuxIFC date 2022.03.02  17:13:55

 INCAR:
 POTCAR:   PAW_PBE Al 04Jan2001
 POTCAR:   PAW_PBE Ca_pv 06Sep2000
 POTCAR:   PAW_PBE Mg 05Jan2001
 POTCAR:   PAW_PBE O 08Apr2002
 POTCAR:   PAW_PBE Ti 08Apr2002
 POTCAR:   PAW_PBE Al 04Jan2001
   VRHFIN =Al: s2p1

   TITEL  = PAW_PBE Al 04Jan2001
   POMASS =   26.982; ZVAL   =    3.000    mass and valenz
   ENMAX  =  240.300; ENMIN  =  180.225 eV
   QCUT   =   -4.203; QGAM   =    8.405    optimization parameters

   Description
     l     E      TYP  RCUT    TYP  RCUT
     0   .000     23  1.900
     0   .000     23  1.900
     1   .000     23  1.900
     1  1.000     23  1.900
     2   .000      7  1.900

 POTCAR:   PAW_PBE Ca_pv 06Sep2000
   VRHFIN =Ca: p6s2d0.01

   TITEL  = PAW_PBE Ca_pv 06Sep2000
   POMASS =   40.078; ZVAL   =    8.000    mass and valenz
   ENMAX  =  119.554; ENMIN  =   89.665 eV
   QCUT   =   -2.964; QGAM   =    5.929    optimization parameters

[...]

 POTCAR:   PAW_PBE Mg 05Jan2001
   VRHFIN =Mg: s2p0

   TITEL  = PAW_PBE Mg 05Jan2001
   POMASS =   24.305; ZVAL   =    2.000    mass and valenz
   ENMAX  =  210.012; ENMIN  =  157.509 eV
   QCUT   =   -3.929; QGAM   =    7.858    optimization parameters

[...]

 POTCAR:   PAW_PBE O 08Apr2002
   VRHFIN =O: s2p4

   TITEL  = PAW_PBE O 08Apr2002
   POMASS =   16.000; ZVAL   =    6.000    mass and valenz
   ENMAX  =  400.000; ENMIN  =  300.000 eV
   QCUT   =   -5.520; QGAM   =   11.041    optimization parameters

[...]

 POTCAR:   PAW_PBE Ti 08Apr2002
   VRHFIN =Ti: d3 s1

   TITEL  = PAW_PBE Ti 08Apr2002
   POMASS =   47.880; ZVAL   =    4.000    mass and valenz
   ENMAX  =  178.330; ENMIN  =  133.747 eV
   QCUT   =   -3.620; QGAM   =    7.241    optimization parameters

   Description
     l     E      TYP  RCUT    TYP  RCUT
     2   .000     23  2.800
     2   .000     23  2.800
     0   .000     23  2.800
     0  1.500     23  2.800
     1  -.400     23  2.800
     3   .000      7   .000

 PAW_PBE Al 04Jan2001                   :
 PAW_PBE Ca_pv 06Sep2000                :
 PAW_PBE Mg 05Jan2001                   :
 PAW_PBE O 08Apr2002                    :
 PAW_PBE Ti 08Apr2002                   :

 POSCAR: supercell generated structure. e_col = 0
  positions in direct lattice
  velocities in cartesian coordinates
 exchange correlation table for  LEXCH =        8
   RHO(1)=    0.500       N(1)  =     2000
   RHO(2)=  100.500       N(2)  =     4000

 ion  position               nearest neighbor table
   1  0.000  1.000  0.000- 189 1.91 152 1.91 175 1.91 146 1.92 183 1.92 157 1.92  25 2.86  60 2.86
                            35 2.86  19 2.87  54 2.87  41 2.87  77 3.36  85 3.36  73 3.36  75 3.36
   2  1.000  0.000  0.500- 156 1.91 191 1.91 166 1.91 185 1.92 150 1.92 172 1.92  27 2.86  64 2.86
                            50 2.86  21 2.87  58 2.87  32 2.87  82 3.36  74 3.36  86 3.36  88 3.36
   3  0.000  0.500  0.000- 164 1.91 177 1.91 187 1.91 158 1.92 171 1.92 145 1.92  37 2.86  48 2.86
                            23 2.86  42 2.87  31 2.87  53 2.87  73 3.36  77 3.36  81 3.36  79 3.36
   4  1.000  0.500  0.500- 168 1.91 179 1.91 154 1.91 173 1.92 162 1.92 184 1.92  52 2.86  39 2.86
                            62 2.86  33 2.87  46 2.87  20 2.87  86 3.36  82 3.36  78 3.36  84 3.36
   5  0.500  1.000  0.000- 176 1.91 165 1.91 151 1.91 170 1.92 159 1.92 181 1.92  36 2.86  49 2.86
                            59 2.86  43 2.87  30 2.87  17 2.87  85 3.36  77 3.36  81 3.36  83 3.36
   6  0.500  0.000  0.500- 180 1.91 167 1.91 190 1.91 174 1.92 161 1.92 148 1.92  51 2.86  40 2.86
                            26 2.86  34 2.87  45 2.87  56 2.87  74 3.36  82 3.36  78 3.36  80 3.36
   7  0.500  0.500  0.000- 188 1.91 153 1.91 163 1.91 182 1.92 147 1.92 169 1.92  24 2.86  61 2.86
                            47 2.86  18 2.87  55 2.87  29 2.87  81 3.36  85 3.36  73 3.36  87 3.36
   8  0.500  0.500  0.500- 192 1.91 155 1.91 178 1.91 186 1.92 149 1.92 160 1.92  28 2.86  63 2.86
                            38 2.86  22 2.87  57 2.87  44 2.87  78 3.36  86 3.36  74 3.36  88 3.36
   9  1.000  0.000  0.239- 141 1.79 122 1.79 127 1.79  89 1.91  92 2.51  65 3.34  71 3.34  69 3.34

  10  0.000  1.000  0.739- 143 1.79 126 1.79 136 1.79  90 1.91  91 2.51  72 3.34  66 3.34  68 3.34

[...]

  16  0.500  0.500  0.739- 125 1.79 144 1.79 130 1.79 102 1.91 103 2.51  72 3.34  66 3.34  70 3.34

  17  0.417  0.083  0.105- 194 1.91 195 1.91 107 1.92 159 1.92 170 1.92  97 1.97  43 2.86  30 2.86
                            19 2.87  18 2.87   5 2.87  77 3.37  81 3.37  75 3.37
  18  0.417  0.333  0.105- 193 1.91 195 1.91 107 1.92 169 1.92 147 1.92 101 1.97  55 2.86  29 2.86
                            19 2.87  17 2.87   7 2.87  81 3.37  73 3.37  75 3.37
  19  0.167  0.083  0.105- 193 1.91 194 1.91 107 1.92 157 1.92 146 1.92  89 1.97  41 2.86  54 2.86
                            17 2.87  18 2.87   1 2.87  77 3.37  73 3.37  75 3.37
  20  0.083  0.417  0.605- 198 1.91 197 1.91 108 1.92 173 1.92 162 1.92  94 1.97  33 2.86  46 2.86
                            21 2.87  22 2.87   4 2.87  78 3.37  82 3.37  76 3.37
  21  0.083  0.167  0.605- 196 1.91 198 1.91 108 1.92 172 1.92 150 1.92  90 1.97  32 2.86  58 2.86
                            20 2.87  22 2.87   2 2.87  82 3.37  74 3.37  76 3.37
  22  0.333  0.417  0.605- 196 1.91 197 1.91 108 1.92 160 1.92 149 1.92 102 1.97  57 2.86  44 2.86
                            21 2.87  20 2.87   8 2.87  78 3.37  74 3.37  76 3.37
  23  0.082  0.418  0.895-  95 1.91 177 1.93 164 1.93 105 1.94 200 1.94 201 1.94  37 2.81  48 2.81
                             3 2.86  25 2.92  24 2.92  83 3.37  79 3.37  73 3.38  66 3.46
  24  0.336  0.418  0.895- 103 1.91 153 1.93 163 1.93 105 1.94 199 1.94 201 1.94  47 2.81  61 2.81
                             7 2.86  25 2.92  23 2.92  75 3.37  79 3.37  73 3.38  66 3.46
  25  0.082  0.164  0.895-  91 1.91 152 1.93 175 1.93 105 1.94 199 1.94 200 1.94  35 2.81  60 2.81
                             1 2.86  24 2.92  23 2.92  75 3.37  83 3.37  73 3.38  66 3.46
  26  0.418  0.082  0.395- 100 1.91 180 1.93 167 1.93 106 1.94 204 1.94 203 1.94  51 2.81  40 2.81
                             6 2.86  27 2.92  28 2.92  80 3.37  84 3.37  74 3.38  65 3.46
  27  0.164  0.082  0.395-  92 1.91 156 1.93 166 1.93 106 1.94 202 1.94 204 1.94  50 2.81  64 2.81
                             2 2.86  28 2.92  26 2.92  76 3.37  80 3.37  74 3.38  65 3.46
  28  0.418  0.336  0.395- 104 1.91 155 1.93 178 1.93 106 1.94 202 1.94 203 1.94  38 2.81  63 2.81
                             8 2.86  27 2.92  26 2.92  76 3.37  84 3.37  74 3.38  65 3.46
  29  0.417  0.583  0.105- 206 1.91 207 1.91 111 1.92 147 1.92 182 1.92 101 1.97  18 2.86  55 2.86
                            30 2.87  31 2.87   7 2.87  73 3.37  85 3.37  79 3.37
  30  0.417  0.833  0.105- 205 1.91 207 1.91 111 1.92 181 1.92 159 1.92  97 1.97  43 2.86  17 2.86
                            31 2.87  29 2.87   5 2.87  85 3.37  77 3.37  79 3.37
  31  0.167  0.583  0.105- 205 1.91 206 1.91 111 1.92 145 1.92 158 1.92  93 1.97  42 2.86  53 2.86
                            30 2.87  29 2.87   3 2.87  73 3.37  77 3.37  79 3.37
  32  0.083  0.917  0.605- 210 1.91 209 1.91 112 1.92 185 1.92 150 1.92  90 1.97  21 2.86  58 2.86
                            33 2.87  34 2.87   2 2.87  86 3.37  74 3.37  80 3.37
  33  0.083  0.667  0.605- 208 1.91 210 1.91 112 1.92 184 1.92 162 1.92  94 1.97  20 2.86  46 2.86
                            32 2.87  34 2.87   4 2.87  86 3.37  78 3.37  80 3.37
  34  0.333  0.917  0.605- 208 1.91 209 1.91 112 1.92 148 1.92 161 1.92  98 1.97  56 2.86  45 2.86
                            32 2.87  33 2.87   6 2.87  74 3.37  78 3.37  80 3.37
  35  0.082  0.918  0.895-  91 1.91 189 1.93 152 1.93 109 1.94 212 1.94 213 1.94  25 2.81  60 2.81
                             1 2.86  37 2.92  36 2.92  87 3.37  75 3.37  77 3.38  68 3.46
  36  0.336  0.918  0.895-  99 1.91 165 1.93 151 1.93 109 1.94 211 1.94 213 1.94  59 2.81  49 2.81
                             5 2.86  37 2.92  35 2.92  79 3.37  75 3.37  77 3.38  68 3.46
  37  0.082  0.664  0.895-  95 1.91 164 1.93 187 1.93 109 1.94 211 1.94 212 1.94  23 2.81  48 2.81
                             3 2.86  36 2.92  35 2.92  79 3.37  87 3.37  77 3.38  68 3.46
  38  0.418  0.582  0.395- 104 1.91 155 1.93 192 1.93 110 1.94 216 1.94 215 1.94  28 2.81  63 2.81
                             8 2.86  40 2.92  39 2.92  76 3.37  88 3.37  78 3.38  67 3.46
  39  0.164  0.582  0.395-  96 1.91 168 1.93 154 1.93 110 1.94 214 1.94 216 1.94  62 2.81  52 2.81
                             4 2.86  40 2.92  38 2.92  80 3.37  76 3.37  78 3.38  67 3.46
  40  0.418  0.836  0.395- 100 1.91 167 1.93 190 1.93 110 1.94 214 1.94 215 1.94  26 2.81  51 2.81
                             6 2.86  39 2.92  38 2.92  80 3.37  88 3.37  78 3.38  67 3.46
  41  0.917  0.083  0.105- 219 1.91 218 1.91 115 1.92 183 1.92 146 1.92  89 1.97  54 2.86  19 2.86
                            43 2.87  42 2.87   1 2.87  85 3.37  73 3.37  83 3.37
  42  0.917  0.333  0.105- 217 1.91 219 1.91 115 1.92 145 1.92 171 1.92  93 1.97  53 2.86  31 2.86
                            41 2.87  43 2.87   3 2.87  73 3.37  81 3.37  83 3.37
  43  0.667  0.083  0.105- 217 1.91 218 1.91 115 1.92 181 1.92 170 1.92  97 1.97  17 2.86  30 2.86
                            41 2.87  42 2.87   5 2.87  85 3.37  81 3.37  83 3.37
  44  0.583  0.417  0.605- 222 1.91 221 1.91 116 1.92 186 1.92 149 1.92 102 1.97  22 2.86  57 2.86
                            46 2.87  45 2.87   8 2.87  86 3.37  74 3.37  84 3.37
  45  0.583  0.167  0.605- 220 1.91 222 1.91 116 1.92 148 1.92 174 1.92  98 1.97  34 2.86  56 2.86
                            46 2.87  44 2.87   6 2.87  74 3.37  82 3.37  84 3.37
  46  0.833  0.417  0.605- 220 1.91 221 1.91 116 1.92 184 1.92 173 1.92  94 1.97  33 2.86  20 2.86
                            45 2.87  44 2.87   4 2.87  86 3.37  82 3.37  84 3.37
  47  0.582  0.418  0.895- 103 1.91 188 1.93 153 1.93 113 1.94 224 1.94 225 1.94  24 2.81  61 2.81
                             7 2.86  48 2.92  49 2.92  87 3.37  75 3.37  81 3.38  70 3.46
  48  0.836  0.418  0.895-  95 1.91 177 1.93 187 1.93 113 1.94 223 1.94 225 1.94  23 2.81  37 2.81
                             3 2.86  49 2.92  47 2.92  83 3.37  87 3.37  81 3.38  70 3.46
  49  0.582  0.164  0.895-  99 1.91 176 1.93 151 1.93 113 1.94 223 1.94 224 1.94  59 2.81  36 2.81
                             5 2.86  48 2.92  47 2.92  83 3.37  75 3.37  81 3.38  70 3.46
  50  0.918  0.082  0.395-  92 1.91 191 1.93 156 1.93 114 1.94 227 1.94 228 1.94  64 2.81  27 2.81
                             2 2.86  51 2.92  52 2.92  88 3.37  76 3.37  82 3.38  69 3.46
  51  0.664  0.082  0.395- 100 1.91 180 1.93 190 1.93 114 1.94 226 1.94 228 1.94  26 2.81  40 2.81
                             6 2.86  52 2.92  50 2.92  84 3.37  88 3.37  82 3.38  69 3.46
  52  0.918  0.336  0.395-  96 1.91 179 1.93 154 1.93 114 1.94 226 1.94 227 1.94  62 2.81  39 2.81
                             4 2.86  51 2.92  50 2.92  84 3.37  76 3.37  82 3.38  69 3.46
  53  0.917  0.583  0.105- 231 1.91 230 1.91 119 1.92 171 1.92 158 1.92  93 1.97  42 2.86  31 2.86
[...]
   0.667E-02 -.107E+02 -.868E+01   -.592E-02 0.915E+01 0.910E+01   -.718E-03 0.154E+01 -.421E+00   0.160E-06 0.209E-04 -.935E-04
   0.926E+01 -.534E+01 -.867E+01   -.793E+01 0.458E+01 0.909E+01   -.133E+01 0.768E+00 -.421E+00   -.181E-04 0.103E-04 -.937E-04
   -.926E+01 -.534E+01 -.868E+01   0.793E+01 0.457E+01 0.910E+01   0.133E+01 0.767E+00 -.421E+00   0.180E-04 0.106E-04 -.938E-04
   -.667E-02 0.107E+02 -.868E+01   0.593E-02 -.915E+01 0.910E+01   0.718E-03 -.154E+01 -.421E+00   -.266E-06 -.209E-04 -.937E-04
   0.542E+01 -.313E+01 0.448E+01   -.575E+01 0.332E+01 -.568E+01   0.331E+00 -.191E+00 0.120E+01   -.214E-04 0.123E-04 0.873E-04
   -.395E-02 0.626E+01 0.449E+01   0.356E-02 -.664E+01 -.569E+01   0.405E-03 0.383E+00 0.120E+01   -.118E-06 -.247E-04 0.874E-04
   -.542E+01 -.313E+01 0.449E+01   0.575E+01 0.332E+01 -.569E+01   -.331E+00 -.192E+00 0.120E+01   0.213E-04 0.125E-04 0.874E-04
   -.542E+01 0.313E+01 0.448E+01   0.575E+01 -.332E+01 -.568E+01   -.331E+00 0.191E+00 0.120E+01   0.212E-04 -.122E-04 0.863E-04
   0.395E-02 -.626E+01 0.449E+01   -.353E-02 0.664E+01 -.569E+01   -.405E-03 -.383E+00 0.120E+01   -.190E-08 0.245E-04 0.863E-04
   0.542E+01 0.313E+01 0.449E+01   -.575E+01 -.332E+01 -.569E+01   0.331E+00 0.192E+00 0.120E+01   -.212E-04 -.122E-04 0.863E-04
   -.926E+01 0.534E+01 -.867E+01   0.793E+01 -.458E+01 0.909E+01   0.133E+01 -.768E+00 -.421E+00   0.180E-04 -.104E-04 -.934E-04
   0.926E+01 0.534E+01 -.868E+01   -.793E+01 -.457E+01 0.910E+01   -.133E+01 -.767E+00 -.421E+00   -.180E-04 -.105E-04 -.935E-04
   0.666E-02 -.107E+02 -.868E+01   -.591E-02 0.915E+01 0.910E+01   -.718E-03 0.154E+01 -.421E+00   0.130E-06 0.209E-04 -.934E-04
   0.926E+01 -.534E+01 -.867E+01   -.793E+01 0.458E+01 0.909E+01   -.133E+01 0.768E+00 -.421E+00   -.181E-04 0.105E-04 -.936E-04
   -.926E+01 -.534E+01 -.868E+01   0.793E+01 0.457E+01 0.910E+01   0.133E+01 0.767E+00 -.421E+00   0.181E-04 0.107E-04 -.938E-04
   -.665E-02 0.107E+02 -.868E+01   0.591E-02 -.915E+01 0.910E+01   0.718E-03 -.154E+01 -.421E+00   -.243E-06 -.210E-04 -.938E-04
   0.542E+01 -.313E+01 0.448E+01   -.575E+01 0.332E+01 -.568E+01   0.331E+00 -.191E+00 0.120E+01   -.212E-04 0.123E-04 0.874E-04
   -.399E-02 0.626E+01 0.449E+01   0.362E-02 -.664E+01 -.569E+01   0.405E-03 0.383E+00 0.120E+01   0.266E-07 -.245E-04 0.873E-04
   -.542E+01 -.313E+01 0.449E+01   0.575E+01 0.332E+01 -.569E+01   -.331E+00 -.192E+00 0.120E+01   0.213E-04 0.123E-04 0.873E-04
   -.542E+01 0.313E+01 0.448E+01   0.575E+01 -.332E+01 -.568E+01   -.331E+00 0.191E+00 0.120E+01   0.214E-04 -.124E-04 0.863E-04
   0.396E-02 -.626E+01 0.449E+01   -.357E-02 0.664E+01 -.569E+01   -.405E-03 -.383E+00 0.120E+01   0.932E-07 0.247E-04 0.864E-04
   0.542E+01 0.313E+01 0.449E+01   -.575E+01 -.332E+01 -.569E+01   0.331E+00 0.192E+00 0.120E+01   -.214E-04 -.125E-04 0.864E-04
   -.926E+01 0.534E+01 -.867E+01   0.793E+01 -.458E+01 0.909E+01   0.133E+01 -.768E+00 -.421E+00   0.181E-04 -.105E-04 -.934E-04
   0.926E+01 0.534E+01 -.868E+01   -.793E+01 -.457E+01 0.910E+01   -.133E+01 -.767E+00 -.421E+00   -.181E-04 -.107E-04 -.935E-04
   0.666E-02 -.107E+02 -.868E+01   -.592E-02 0.915E+01 0.910E+01   -.718E-03 0.154E+01 -.421E+00   0.217E-06 0.210E-04 -.935E-04
   0.926E+01 -.534E+01 -.867E+01   -.793E+01 0.458E+01 0.909E+01   -.133E+01 0.768E+00 -.421E+00   -.180E-04 0.104E-04 -.937E-04
   -.926E+01 -.534E+01 -.868E+01   0.793E+01 0.457E+01 0.910E+01   0.133E+01 0.767E+00 -.421E+00   0.181E-04 0.105E-04 -.937E-04
   -.669E-02 0.107E+02 -.868E+01   0.600E-02 -.915E+01 0.910E+01   0.718E-03 -.154E+01 -.421E+00   -.103E-06 -.209E-04 -.938E-04
   0.542E+01 -.313E+01 0.448E+01   -.575E+01 0.332E+01 -.568E+01   0.331E+00 -.191E+00 0.120E+01   -.212E-04 0.124E-04 0.873E-04
   -.396E-02 0.626E+01 0.449E+01   0.355E-02 -.664E+01 -.569E+01   0.405E-03 0.383E+00 0.120E+01   -.762E-09 -.246E-04 0.874E-04
   -.542E+01 -.313E+01 0.449E+01   0.575E+01 0.332E+01 -.569E+01   -.331E+00 -.192E+00 0.120E+01   0.213E-04 0.124E-04 0.873E-04
   -.542E+01 0.313E+01 0.448E+01   0.575E+01 -.332E+01 -.568E+01   -.331E+00 0.191E+00 0.120E+01   0.213E-04 -.122E-04 0.863E-04
   0.396E-02 -.626E+01 0.449E+01   -.357E-02 0.664E+01 -.569E+01   -.405E-03 -.383E+00 0.120E+01   0.115E-06 0.246E-04 0.863E-04
   0.542E+01 0.313E+01 0.449E+01   -.575E+01 -.332E+01 -.569E+01   0.331E+00 0.192E+00 0.120E+01   -.213E-04 -.123E-04 0.864E-04
   -.926E+01 0.534E+01 -.867E+01   0.793E+01 -.458E+01 0.909E+01   0.133E+01 -.768E+00 -.421E+00   0.181E-04 -.103E-04 -.934E-04
   0.926E+01 0.534E+01 -.868E+01   -.793E+01 -.457E+01 0.910E+01   -.133E+01 -.767E+00 -.421E+00   -.181E-04 -.106E-04 -.935E-04
[...]
   0.189E-01 -.103E-01 0.133E+02   -.188E-01 0.957E-02 -.129E+02   -.274E-03 0.158E-03 -.393E+00   0.104E-06 -.267E-07 0.137E-03
   -.184E-01 0.112E-01 0.133E+02   0.178E-01 -.115E-01 -.129E+02   0.274E-03 -.158E-03 -.393E+00   -.427E-07 0.157E-06 0.136E-03
   -.191E-01 0.110E-01 -.157E+02   0.187E-01 -.107E-01 0.154E+02   0.325E-03 -.188E-03 0.303E+00   -.157E-06 0.120E-06 -.129E-03
   0.195E-01 -.113E-01 -.157E+02   -.195E-01 0.112E-01 0.154E+02   -.325E-03 0.188E-03 0.303E+00   0.166E-06 -.160E-06 -.129E-03
   0.190E-01 -.110E-01 0.133E+02   -.191E-01 0.110E-01 -.129E+02   -.274E-03 0.158E-03 -.393E+00   0.123E-06 -.135E-06 0.137E-03
   -.185E-01 0.107E-01 0.133E+02   0.181E-01 -.104E-01 -.129E+02   0.274E-03 -.158E-03 -.393E+00   -.587E-07 0.642E-07 0.136E-03
   -.196E-01 0.113E-01 -.157E+02   0.196E-01 -.113E-01 0.154E+02   0.325E-03 -.188E-03 0.303E+00   -.248E-06 0.111E-06 -.130E-03
   0.191E-01 -.110E-01 -.157E+02   -.186E-01 0.108E-01 0.154E+02   -.325E-03 0.188E-03 0.303E+00   0.228E-06 -.659E-07 -.129E-03
   0.185E-01 -.107E-01 0.133E+02   -.180E-01 0.104E-01 -.129E+02   -.274E-03 0.158E-03 -.393E+00   0.130E-06 -.100E-07 0.137E-03
   -.191E-01 0.110E-01 0.133E+02   0.191E-01 -.111E-01 -.129E+02   0.274E-03 -.158E-03 -.393E+00   -.206E-06 0.856E-07 0.136E-03
   -.195E-01 0.107E-01 -.157E+02   0.194E-01 -.101E-01 0.154E+02   0.325E-03 -.188E-03 0.303E+00   -.226E-06 0.637E-07 -.130E-03
   0.190E-01 -.115E-01 -.157E+02   -.184E-01 0.117E-01 0.154E+02   -.325E-03 0.188E-03 0.303E+00   0.234E-06 -.104E-06 -.129E-03
   0.184E-01 -.112E-01 0.133E+02   -.178E-01 0.116E-01 -.129E+02   -.274E-03 0.158E-03 -.393E+00   0.123E-06 -.105E-06 0.137E-03
   -.190E-01 0.103E-01 0.133E+02   0.189E-01 -.964E-02 -.129E+02   0.274E-03 -.158E-03 -.393E+00   -.173E-06 -.326E-07 0.136E-03
   0.185E-01 -.338E-02 -.463E+02   -.500E-12 -.272E-13 0.593E-12   0.114E-13 0.844E-14 0.462E+02   0.425E-08 -.267E-09 -.336E-04

 POSITION                                       TOTAL-FORCE (eV/Angst)
     -5.72871      9.92246      0.00731         0.000010     -0.000006     -0.000096
     11.45746      0.00002     11.20966        -0.000010      0.000006     -0.000096
     -2.86434      4.96122      0.00731         0.000010     -0.000006     -0.000096
      8.59309      4.96126     11.20966        -0.000010      0.000006     -0.000096
      0.00004      9.92246      0.00731         0.000010     -0.000006     -0.000096
      5.72871      0.00002     11.20966        -0.000010      0.000006     -0.000096
      2.86441      4.96122      0.00731         0.000010     -0.000006     -0.000096
      2.86434      4.96126     11.20966        -0.000010      0.000006     -0.000096
     11.45748      0.00001      5.34489        -0.000011      0.000007      0.000796
     -5.72873      9.92247     16.54724         0.000011     -0.000007      0.000796
      8.59310      4.96126      5.34489        -0.000011      0.000007      0.000796
     -2.86435      4.96123     16.54724         0.000011     -0.000007      0.000796
      5.72872      0.00001      5.34489        -0.000011      0.000007      0.000796
      0.00002      9.92247     16.54724         0.000011     -0.000007      0.000796
      2.86435      4.96126      5.34489        -0.000011      0.000007      0.000796
      2.86440      4.96123     16.54724         0.000011     -0.000007      0.000796
      4.29780      0.82616      2.35358        -0.000121      0.000070      0.001075
      2.86441      3.30885      2.35357         0.000012     -0.000160      0.001072
      1.43103      0.82616      2.35357         0.000145      0.000070      0.001072
     -1.43342      4.13508     13.55594         0.000121     -0.000070      0.001075
     -0.00004      1.65239     13.55592        -0.000012      0.000160      0.001072
      1.43335      4.13508     13.55592        -0.000145     -0.000070      0.001072
     -1.45861      4.14962     20.05198         0.001385     -0.000799     -0.000690
      1.45867      4.14962     20.05203        -0.001366     -0.000802     -0.000674
      0.00004      1.62319     20.05203         0.000011      0.001584     -0.000674
      4.32298      0.81162      8.84962        -0.001385      0.000799     -0.000690
      1.40570      0.81163      8.84968         0.001366      0.000802     -0.000674
      2.86434      3.33806      8.84968        -0.000011     -0.001584     -0.000674
      1.43342      5.78740      2.35358        -0.000121      0.000070      0.001075
      0.00004      8.27009      2.35357         0.000012     -0.000160      0.001072
     -1.43334      5.78740      2.35357         0.000145      0.000070      0.001072
     -4.29780      9.09632     13.55594         0.000121     -0.000070      0.001075
     -2.86441      6.61363     13.55592        -0.000012      0.000160      0.001072
     -1.43103      9.09632     13.55592        -0.000145     -0.000070      0.001072
     -4.32298      9.11086     20.05198         0.001385     -0.000799     -0.000690
     -1.40570      9.11086     20.05203        -0.001366     -0.000802     -0.000674
     -2.86434      6.58443     20.05203         0.000011      0.001584     -0.000674
      1.45861      5.77286      8.84962        -0.001385      0.000799     -0.000690
     -1.45867      5.77287      8.84968         0.001366      0.000802     -0.000674
     -0.00004      8.29930      8.84968        -0.000011     -0.001584     -0.000674
     10.02655      0.82616      2.35358        -0.000121      0.000070      0.001075
      8.59316      3.30885      2.35357         0.000012     -0.000160      0.001072
      7.15978      0.82616      2.35357         0.000145      0.000070      0.001072
      4.29533      4.13508     13.55594         0.000121     -0.000070      0.001075
      5.72871      1.65239     13.55592        -0.000012      0.000160      0.001072
      7.16209      4.13508     13.55592        -0.000145     -0.000070      0.001072
      4.27014      4.14962     20.05198         0.001385     -0.000799     -0.000690
      7.18742      4.14962     20.05203        -0.001366     -0.000802     -0.000674
      5.72879      1.62319     20.05203         0.000011      0.001584     -0.000674
     10.05173      0.81162      8.84962        -0.001385      0.000799     -0.000690
      7.13445      0.81163      8.84968         0.001366      0.000802     -0.000674
      8.59309      3.33806      8.84968        -0.000011     -0.001584     -0.000674
      7.16217      5.78740      2.35358        -0.000121      0.000070      0.001075
      5.72879      8.27010      2.35357         0.000012     -0.000160      0.001072
      4.29540      5.78740      2.35357         0.000145      0.000070      0.001072
      1.43095      9.09632     13.55594         0.000121     -0.000070      0.001075
      2.86434      6.61363     13.55592        -0.000012      0.000160      0.001072
      4.29772      9.09632     13.55592        -0.000145     -0.000070      0.001072
      1.40577      9.11086     20.05198         0.001385     -0.000799     -0.000690
      4.32305      9.11086     20.05203        -0.001366     -0.000802     -0.000674
[...]
     -0.00008      3.30755      6.99515        -0.000019      0.000011     -0.005677
      0.00004      3.30748      4.17313         0.000015     -0.000009      0.007050
      2.86434      1.65377     15.37548        -0.000015      0.000009      0.007050
      0.00008      6.61494     18.19750         0.000019     -0.000011     -0.005677
     -2.86445      8.26878      6.99515        -0.000019      0.000011     -0.005677
     -2.86433      8.26871      4.17313         0.000015     -0.000009      0.007050
     -0.00004      6.61501     15.37548        -0.000015      0.000009      0.007050
      8.59320      1.65370     18.19750         0.000019     -0.000011     -0.005677
      5.72867      3.30754      6.99515        -0.000019      0.000011     -0.005677
      5.72879      3.30747      4.17313         0.000015     -0.000009      0.007050
      8.59308      1.65377     15.37548        -0.000015      0.000009      0.007050
      5.72883      6.61494     18.19750         0.000019     -0.000011     -0.005677
      2.86429      8.26878      6.99515        -0.000019      0.000011     -0.005677
      2.86441      8.26871      4.17313         0.000015     -0.000009      0.007050
      5.72871      6.61501     15.37548        -0.000015      0.000009      0.007050
    total drift:                                0.018520     -0.003377     -0.034272

  FREE ENERGIE OF THE ION-ELECTRON SYSTEM (eV)
  free  energy   TOTEN  =     -1926.54652887 eV

  energy  without entropy=    -1926.54652887  energy(sigma->0) =    -1926.54652887

 total charge

[...]

 magnetization (x)

# of ion       s       p       d       tot
    1        0.000   0.000   0.000   0.000
    2        0.000   0.000   0.000   0.000
    3        0.000   0.000   0.000   0.000
    4        0.000   0.000   0.000   0.000
    5        0.000   0.000   0.000   0.000
    6        0.000   0.000   0.000   0.000
    7        0.000   0.000   0.000   0.000
    8        0.000   0.000   0.000   0.000
    9        0.000   0.000   0.000   0.000
   10        0.000   0.000   0.000   0.000
   11        0.000   0.000   0.000   0.000
   12        0.000   0.000   0.000   0.000
   13        0.000   0.000   0.000   0.000
   14        0.000   0.000   0.000   0.000
   15        0.000   0.000   0.000   0.000
   16        0.000   0.000   0.000   0.000
   17        0.000   0.000   0.000   0.000
   18        0.000   0.000   0.000   0.000
   19        0.000   0.000   0.000   0.000
   20        0.000   0.000   0.000   0.000
   21        0.000   0.000   0.000   0.000
   22        0.000   0.000   0.000   0.000
   23        0.000   0.000   0.000   0.000
   24        0.000   0.000   0.000   0.000
   25        0.000   0.000   0.000   0.000
   26        0.000   0.000   0.000   0.000
   27        0.000   0.000   0.000   0.000
   28        0.000   0.000   0.000   0.000
   29        0.000   0.000   0.000   0.000
   30        0.000   0.000   0.000   0.000
   31        0.000   0.000   0.000   0.000
   32        0.000   0.000   0.000   0.000
   33        0.000   0.000   0.000   0.000
   34        0.000   0.000   0.000   0.000
   35        0.000   0.000   0.000   0.000
   36        0.000   0.000   0.000   0.000
   37        0.000   0.000   0.000   0.000
   38        0.000   0.000   0.000   0.000
   39        0.000   0.000   0.000   0.000
   40        0.000   0.000   0.000   0.000
   41        0.000   0.000   0.000   0.000
   42        0.000   0.000   0.000   0.000
   43        0.000   0.000   0.000   0.000
   44        0.000   0.000   0.000   0.000
   45        0.000   0.000   0.000   0.000
   46        0.000   0.000   0.000   0.000
   47        0.000   0.000   0.000   0.000
   48        0.000   0.000   0.000   0.000
   49        0.000   0.000   0.000   0.000
   50        0.000   0.000   0.000   0.000
   51        0.000   0.000   0.000   0.000
   52        0.000   0.000   0.000   0.000
   53        0.000   0.000   0.000   0.000
   54        0.000   0.000   0.000   0.000
   55        0.000   0.000   0.000   0.000
   56        0.000   0.000   0.000   0.000
   57        0.000   0.000   0.000   0.000
   58        0.000   0.000   0.000   0.000
   59        0.000   0.000   0.000   0.000
   60        0.000   0.000   0.000   0.000
[...]
  242        0.000   0.000   0.000   0.000
  243        0.000   0.000   0.000   0.000
  244        0.000   0.000   0.000   0.000
  245        0.000   0.000   0.000   0.000
  246        0.000   0.000   0.000   0.000
  247        0.000   0.000   0.000   0.000
  248        0.000   0.000   0.000   0.000
  249        0.000   0.000   0.000   0.000
  250        0.000   0.000   0.000   0.000
  251        0.000   0.000   0.000   0.000
  252        0.000   0.000   0.000   0.000
  253        0.000   0.000   0.000   0.000
  254        0.000   0.000   0.000   0.000
  255        0.000   0.000   0.000   0.000
  256        0.000   0.000   0.000   0.000
tot          0.000  -0.000   0.000  -0.000

 BZINTS: Fermi energy:  4.243764;********** electrons
         Band energy:***********;  BLOECHL correction:  0.000000